c clasp version 2.1.4
c Reading from ...arks/18_Nodes/PBencd_EuclideanCost.opb
c Solving...
o 681
o 670
o 641
o 608
o 599
o 572
o 569
o 559
o 553
o 545
o 537
o 534
o 528
o 525
o 519
o 516
o 513
o 501
o 497
o 489
o 488
o 484
o 479
o 478
o 475
o 459
o 455
o 452
o 448
o 447
o 444
o 443
o 442
o 439
o 434
o 433
o 431
o 430
o 421
o 418
o 407
o 406
o 405
o 403
o 398
o 396
o 395
o 394
o 392
o 391
o 379
o 367
o 366
o 363
o 360
o 356
o 351
o 349
o 345
o 334
o 332
o 329
o 328
o 318
o 317
o 316
o 314
o 313
o 302
o 293
o 285
o 284
o 277
o 275
o 270
o 269
o 267
o 265
o 264
o 263
o 261
